WARNING: for repeatability, setting FPU to use double precision
============================[ Problem Statistics ]=============================
|                                                                             |
|  Number of variables:            50                                         |
|  Number of clauses:             218                                         |
|  Parse time:                   0.00 s                                       |
|                                                                             |
============================[ Search Statistics ]==============================
| Conflicts |          ORIGINAL         |          LEARNT          | Progress |
|           |    Vars  Clauses Literals |    Limit  Clauses Lit/Cl |          |
===============================================================================
===============================================================================
restarts              : 1
conflicts             : 40             (28110 /sec)
decisions             : 51             (0.00 % random) (35840 /sec)
propagations          : 623            (437807 /sec)
conflict literals     : 143            (13.86 % deleted)
Memory used           : 20.00 MB
CPU time              : 0.001423 s

SATISFIABLE
